CMD:
./solvers/bin/cadical --plain --no-reduce -t 1600 ./data/cnfs//cal129/cal129.27.cnf

c --- [ banner ] -------------------------------------------------------------
c 
c CaDiCaL SAT Solver
c Copyright (c) 2016-2024
c A. Biere, M. Fleury, N. Froleyks, K. Fazekas, F. Pollitt, T. Faller
c JKU Linz, University of Freiburg, TU Wien
c 
c Version 2.1.3 5296d3d2a9bf48c154ab2acb5e44625776d821bf
c g++ (Gentoo 12.3.1_p20230526 p2) 12.3.1 20230526 -Wall -Wextra -O3 -DNDEBUG
c Sat Aug 9 07:26:21 PDT 2025 Linux cedar2.int.cedar.computecanada.ca 5.14.0-362.24.2.el9_3.x86_64 x86_64
c 
c --- [ limit ] --------------------------------------------------------------
c 
c setting time limit to 1600 seconds real time (due to '-t 1600')
c 
c --- [ parsing input ] ------------------------------------------------------
c 
c reading DIMACS file from './data/cnfs//cal129/cal129.27.cnf'
c opening file to read './data/cnfs//cal129/cal129.27.cnf'
c found 'p cnf 766631 2179762' header
c parsed 2179762 clauses in 0.40 seconds process time
c 
c --- [ options ] ------------------------------------------------------------
c 
c   --compact=false                (different from default 'true')
c   --decompose=false              (different from default 'true')
c   --deduplicate=false            (different from default 'true')
c   --elim=false                   (different from default 'true')
c   --probe=false                  (different from default 'true')
c   --reduce=false                 (different from default 'true')
c   --subsume=false                (different from default 'true')
c   --ternary=false                (different from default 'true')
c   --transred=false               (different from default 'true')
c   --vivify=false                 (different from default 'true')
c 
c --- [ solving ] ------------------------------------------------------------
c 
c time measured in process time since initialization
c 
c  seconds   reductions  redundant   irredundant
c          MB    restarts       trail        variables
c           level   conflicts       glue           remaining
c 
c *  0.40 330  0 0   0    0    0  0% 0 2030951 732933 96%
c {  0.41 330  0 0   0    0    0  0% 0 2030951 732933 96%
c i  0.45 331 610 0  13  461  385  7% 4 2030951 732929 96%
c }  1.55 340 4016 0  46 1001  856 22% 3 2030951 732928 96%
c [  1.55 340  0 0  46 1001  856  0% 0 2030951 732928 96%
c O  1.57 340 1416 0  46 1002  857  8% 1 2030951 732928 96%
c i  1.79 341 27317 0  46 1434 1256 81% 4 2030951 732926 96%
c i  1.85 341 28773 0  46 1977 1754 84% 5 2030951 732923 96%
c ]  2.16 342 15199 0  47 3001 2682 49% 6 2030951 732922 96%
c {  2.16 342 4016 0  47 3001 2682 22% 3 2030951 732922 96%
c F  2.16 342 4007 0  48 3003 2684 22% 3 2030951 732922 96%
c i  2.91 342 1897 0 195 4066 3656 15% 4 2030951 732921 96%
c #  3.97 343 1017 0 345 6010 5342 14% 4 2030951 732921 96%
c }  4.65 343 841 0 412 7001 6176 17% 4 2030951 732921 96%
c [  4.65 343 15199 0 412 7001 6176 49% 6 2030951 732921 96%
c i  4.66 343 14553 0 412 7089 6250 48% 6 2030951 732918 96%
c i  4.82 344 7210 0 414 9192 8162 29% 7 2030951 732917 96%
c i  4.83 344 7183 0 414 9222 8188 29% 7 2030951 732916 96%
c i  4.87 344 7184 0 414 9256 8215 29% 7 2030951 732915 96%
c i  4.88 344 7188 0 414 9260 8217 29% 7 2030951 732914 96%
c 
c  seconds     reductions  redundant   irredundant
c          MB      restarts       trail        variables
c            level    conflicts       glue           remaining
c 
c i  4.89 344 7201 0 414 9272 8223 29% 7 2030951 732913 96%
c I  5.44 344 6866 0 414 10012 8846 29% 6 2030951 732893 96%
c i  5.61 345 3945 0 417 13620 12057 20% 6 2030951 732241 96%
c ] 10.80 345 3386 0 417 15001 13277 20% 7 2030951 732241 96%
c { 10.80 345 841 0 417 15001 13277 17% 4 2030951 732241 96%
c B 10.85 345 839 0 421 15015 13289 17% 4 2030951 732241 96%
c i 12.63 346 660 0 652 16728 14851 17% 5 2030951 732238 96%
c i 15.10 347 527 0 906 19666 17497 19% 5 2030951 732233 96%
c W 17.33 347 480 0 1051 21016 17069 19% 5 1993659 732233 96%
c i 17.74 347 472 0 1077 21289 17315 19% 5 1993659 732230 96%
c i 18.37 347 452 0 1136 21946 17880 19% 5 1993659 732226 96%
c i 18.56 347 447 0 1144 22085 18006 19% 5 1993659 732222 96%
c i 18.81 347 442 0 1161 22306 18202 19% 5 1993659 732219 96%
c i 19.64 347 432 0 1252 22794 18663 19% 5 1993659 732215 96%
c i 19.70 347 428 0 1282 22919 18779 19% 5 1993659 731979 95%
c i 26.66 347 342 0 1885 27824 23172 19% 5 1993659 731976 95%
c F 26.92 347 339 0 1913 28017 23352 19% 5 1993659 731976 95%
c i 27.50 347 326 0 1952 29150 24243 19% 5 1993659 731416 95%
c } 30.18 347 308 0 2113 31001 25911 19% 5 1993659 731416 95%
c [ 30.18 347 3386 0 2113 31001 25911 20% 7 1993659 731416 95%
c 
c  seconds     reductions     redundant   irredundant
c          MB      restarts          trail        variables
c            level      conflicts        glue           remaining
c 
c i 30.33 347 3354 0 2113 31099 26004 20% 7 1993659 731415 95%
c i 30.37 347 3357 0 2113 31119 26018 20% 7 1993659 731414 95%
c i 30.60 347 3387 0 2113 31176 26061 20% 7 1993659 731405 95%
c i 30.71 347 3363 0 2113 31455 26324 21% 7 1993659 731401 95%
... skipped 306 lines ...
c i 1071.95 804 129 0 67896 1611884 1382925 19% 13 1986078 730687 95%
c i 1085.27 806 121 0 69946 1629594 1396055 19% 13 1986078 730684 95%
c i 1096.30 806 119 0 71312 1641516 1405635 18% 13 1986078 730683 95%
c i 1104.01 806 116 0 72532 1649497 1411639 18% 14 1986078 730680 95%
c # 1107.92 806 118 0 72971 1653127 1414779 18% 14 1986078 730680 95%
c i 1109.43 806 117 0 73232 1654908 1415986 18% 14 1986078 730679 95%
c i 1118.10 806 119 0 74555 1666967 1424471 18% 14 1986078 730676 95%
c i 1118.20 806 119 0 74560 1667103 1424598 18% 14 1986078 730673 95%
c i 1118.20 806 119 0 74560 1667114 1424607 18% 14 1986078 730671 95%
c i 1127.79 806 122 0 75390 1676667 1433094 18% 14 1986078 730667 95%
c 
c   seconds     reductions         redundant     irredundant
c            MB      restarts              trail         variables
c              level       conflicts           glue            remaining
c 
c i 1127.79 806 123 0 75390 1676680 1433106 18% 14 1986078 730664 95%
c i 1133.40 806 126 0 75758 1683382 1438464 19% 14 1986078 730661 95%
c B 1156.64 806 117 0 78493 1711131 1459512 18% 14 1986078 730661 95%
c i 1193.30 815 117 0 80922 1760156 1498777 19% 13 1986078 730658 95%
c W 1202.37 840 123 0 81399 1770132 1507701 20% 13 1985952 730658 95%
c i 1250.64 842 119 0 85410 1816972 1546271 20% 13 1985952 730656 95%
c F 1263.88 842 116 0 86563 1830134 1556603 19% 13 1985952 730655 95%
c i 1297.93 842 111 0 89922 1857598 1579106 19% 14 1985952 730652 95%
c i 1325.56 842 115 0 92325 1879475 1597242 19% 14 1985952 730649 95%
c i 1327.70 842 120 0 92350 1882018 1599605 19% 14 1985952 730646 95%
c B 1335.95 844 119 0 92620 1891135 1607695 19% 14 1985952 730646 95%
c i 1402.59 864 120 0 96730 1945949 1655862 20% 14 1985952 730645 95%
c i 1402.59 864 120 0 96730 1945951 1655863 20% 14 1985952 730643 95%
c W 1410.21 889 118 0 97261 1953137 1661432 20% 14 1985899 730642 95%
c i 1412.91 889 118 0 97476 1955407 1663381 20% 14 1985899 730639 95%
c i 1425.26 889 119 0 98428 1967408 1673721 19% 14 1985899 730638 95%
c i 1474.86 891 116 0 101639 2014351 1713815 19% 13 1985899 730635 95%
c i 1476.24 891 117 0 101654 2015897 1715244 19% 13 1985899 730633 95%
c # 1476.38 891 118 0 101654 2016140 1715465 20% 13 1985899 730633 95%
c i 1494.82 892 120 0 102488 2030296 1728194 20% 13 1985899 730630 95%
c 
c   seconds     reductions          redundant     irredundant
c            MB      restarts               trail         variables
c              level        conflicts           glue            remaining
c 
c } 1514.69 892 120 0 103864 2047008 1742836 20% 13 1985899 730630 95%
c [ 1514.69 892 288 0 103864 2047008 1742836 25% 29 1985899 730630 95%
c I 1542.48 892 291 0 103879 2080141 1773249 25% 29 1985899 730630 95%
c B 1581.72 919 187 0 103900 2145142 1833891 24% 42 1985899 730630 95%
c ] 1590.11 925 204 0 103906 2155478 1843596 24% 41 1985899 730630 95%
c ? 1590.11 925 204 0 103906 2155478 1843596 24% 41 1985899 730630 95%
c 
c --- [ result ] -------------------------------------------------------------
c 
c UNKNOWN
c 
c --- [ run-time profiling ] -------------------------------------------------
c 
c process time taken by individual solving procedures
c (percentage relative to process time for solving)
c 
c      1589.71  100.00% search
c      1141.25   71.79% unstable
c       435.35   27.39% stable
c        13.09    0.82% walk
c         0.40    0.02% parse
c         0.01    0.00% lucky
c         0.00    0.00% simplify
c   =================================
c      1589.71   99.98% solve
c 
c last line shows process time for solving
c (percentage relative to total process time)
c 
c --- [ statistics ] ---------------------------------------------------------
c 
c chronological:            642845        29.82 %  of conflicts
c conflicts:               2155478      1355.89    per second
c decisions:              10261226      6454.77    per second
c fixed:                     36000         4.70 %  of all variables
c learned:                 2079704        96.48 %  per conflict
c learned_lits:          195725541       100.00 %  learned literals
c minimized:                     0         0.00 %  learned literals
c shrunken:               63553845        32.47 %  learned literals
c minishrunken:           36531967        18.66 %  learned literals
c otfs:                       7401         0.34 %  of conflict
c propagations:        12227953439         7.69 M  per second
c rephased:                     65     33161.20    interval
c restarts:                 103906        20.74    interval
c stabilizing:                   6        36.65 %  of conflicts
c subsumed:                 232458         5.66 %  of all clauses
c strengthened:               6815         0.17 %  of all clauses
c walked:                       20    107773.90    interval
c 
c seconds are measured in process time for solving
c 
c --- [ resources ] ----------------------------------------------------------
c 
c total process time since initialization:      1590.11    seconds
c total real time since initialization:         1600.00    seconds
c maximum resident set size of process:         1253.99    MB
c 
c --- [ shutting down ] ------------------------------------------------------
c 
c exit 0
